(set-info :Origin "This instance was generated by: BanditFuzz-- an RL fuzzer for SMT solvers" )
(set-info :Author "Joe Scott, Fed Mora, Vijay Ganesh" )
(set-info :Contact "Joe Scott, joseph.scott@uwaterloo.ca")
(set-logic QF_BV)
(declare-const bool_0 Bool)
(declare-const bool_1 Bool)
(declare-const bool_2 Bool)
(declare-const bool_3 Bool)
(declare-const bool_4 Bool)
(declare-const bv_0 (_ BitVec 32))
(declare-const bv_1 (_ BitVec 32))
(declare-const bv_2 (_ BitVec 32))
(declare-const bv_3 (_ BitVec 32))
(declare-const bv_4 (_ BitVec 32))
(assert (bvugt (bvsub (bvurem bv_1 bv_1) (bvsdiv #x872b9adb  #x46af668b )) (bvnor (bvashr #xf50e787c  #x87590e7e ) (bvand bv_2 bv_1))))
(assert (not (bvslt (bvand #x74af5d58  bv_1) (bvsrem bv_3 #x656f4e9c ))))
(assert (bvslt (bvsrem (bvshl bv_4 #xeac31586 ) (bvlshr bv_0 bv_1)) (bvnand (bvmul #x68330418  #xe6e30bdb ) (bvnand #x7765066d  bv_4))))
(assert (bvuge (bvsub (bvlshr #xae7b8d32  #x6ef8f5b4 ) (bvadd bv_3 #x681c0471 )) (bvashr (bvshl bv_3 #xfdbcc20d ) (bvxor bv_2 #xed5b5e43 ))))
(assert (bvule (bvxnor (bvurem bv_0 #x1ebe439e ) (bvnand #xdcbeae65  bv_4)) (bvnor (bvxor bv_2 bv_2) (bvxor bv_4 bv_4))))
(check-sat)
(exit)
